Linux optc-09-04 4.15.0-58-generic #64-Ubuntu SMP Tue Aug 6 11:12:41 UTC 2019 x86_64 x86_64 x86_64 GNU/Linux

top - 03:05:43 up 1 day, 17:06,  0 users,  load average: 0,25, 0,26, 0,54
Tasks: 290 gesamt,   1 laufend, 149 schlafend,   0 gestoppt,   0 Zombie
%CPU(s):  7,3 be,  0,2 sy,  0,0 ni, 92,5 un,  0,0 wa,  0,0 hi,  0,0 si,  0,0 st
KiB Spch : 97514992 gesamt, 94780896 frei,   649812 belegt,  2084284 Puff/Cache
KiB Swap:  8388604 gesamt,  8388604 frei,        0 belegt. 96121912 verfü Spch 

  PID USER      PR  NI    VIRT    RES    SHR S  %CPU %MEM     ZEIT+ BEFEHL
32621 bzfhende  20   0   52664   4120   3372 R   4,3  0,0   0:00.01 top
    1 root      20   0  233832   9392   6696 S   0,0  0,0   0:13.17 systemd
    2 root      20   0       0      0      0 S   0,0  0,0   0:00.13 kthreadd
    3 root      20   0       0      0      0 I   0,0  0,0   0:02.35 kworker/0:0
    4 root       0 -20       0      0      0 I   0,0  0,0   0:00.00 kworker/0:+
    6 root      20   0       0      0      0 I   0,0  0,0   0:00.00 kworker/u3+
    7 root       0 -20       0      0      0 I   0,0  0,0   0:00.00 mm_percpu_+
    8 root      20   0       0      0      0 S   0,0  0,0   0:00.01 ksoftirqd/0

hard time limit: 04:10:00
hard mem limit: 55100

SLURM jobID: 2182879

@01 /nfs/optimi/kombadon/IP/coral/neos-984165.mps.gz ===========
-----------------------------
Fr 23. Aug 03:05:43 CEST 2019
-----------------------------
@03 1566522343
@05 7200
SCIP version 6.0.0 [precision: 8 byte] [memory: block] [mode: optimized] [LP solver: CPLEX 12.8.0.0] [GitHash: 41ab6e0014]
Copyright (C) 2002-2018 Konrad-Zuse-Zentrum fuer Informationstechnik Berlin (ZIB)

External codes: 
  Readline 7.0         GNU library for command line editing (gnu.org/s/readline)
  CPLEX 12.8.0.0       Linear Programming Solver developed by IBM (www.cplex.com)
  CppAD 20180000.0     Algorithmic Differentiation of C++ algorithms developed by B. Bell (www.coin-or.org/CppAD)
  ZLIB 1.2.11          General purpose compression library by J. Gailly and M. Adler (zlib.net)
  GMP 6.1.2            GNU Multiple Precision Arithmetic Library developed by T. Granlund (gmplib.org)
  bliss 0.73p          Computing Graph Automorphism Groups by T. Junttila and P. Kaski (http://www.tcs.hut.fi/Software/bliss/)

user parameter file <scip.set> not found - using default parameters

SCIP> 
SCIP> set load /home/optimi/bzfhende/opti/scip-opti/check/../settings/enable_treeeprofile.set
loaded parameter file </home/optimi/bzfhende/opti/scip-opti/check/../settings/enable_treeprofile.set>
SCIP> set misc referencevalue 2202
misc/referencevalue = 2202
SCIP> set limits time 7200
limits/time = 7200
SCIP> set limits nodes 2100000000
limits/nodes = 2100000000
SCIP> set limits memory 50000
limits/memory = 50000
SCIP> set lp advanced threads 1
lp/threads = 1
SCIP> set timing clocktype 1
timing/clocktype = 1
SCIP> set display freq 10000
display/freq = 10000
SCIP> set memory savefac 1.0
memory/savefac = 1
SCIP> set save /home/optimi/bzfhende/opti/scip-opti/check/treesize.estimation.jouurnal.3/bzfhende.MMMc.415_neos-984165.scip.M640.enable_treeprofile.set
saved parameter file </home/optimi/bzfhende/opti/scip-opti/check/treesize.estimation.journal.3/bzfhende.MMMc.415_neos-984165.scip.M640.enable_treeprofile.set>
SCIP> read /nfs/optimi/kombadon/IP/coral/neos-984165.mps.gz

read problem </nfs/optimi/kombadon/IP/coral/neos-984165.mps.gz>
============

Warning line 6966: row "R6964" for objective function "N" ignored
original problem has 8883 variables (6478 bin, 0 int, 0 impl, 2405 cont) and 6962 constraints
SCIP> display parameters

number of parameters = 2448
non-default parameter settings:
display/freq = 10000
limits/time = 7200
limits/nodes = 2100000000
limits/memory = 50000
lp/threads = 1
memory/savefac = 1
misc/referencevalue = 2202
presolving/maxrestarts = 0
estimates/profile/enabled = TRUE
estimates/profile/maxdepthfactor = 10
estimates/profile/freq = 0

SCIP> optimize

Activating tree profile data collection
presolving:
(round 1, fast)       1711 del vars, 7 del conss, 0 add conss, 155 chg bounds, 0 chg sides, 0 chg coeffs, 0 upgd conss, 0 impls, 5985 clqs
(round 2, fast)       1711 del vars, 7 del conss, 0 add conss, 155 chg bounds, 155 chg sides, 0 chg coeffs, 0 upgd conss, 0 impls, 5985 clqs
(round 3, fast)       1711 del vars, 7 del conss, 0 add conss, 849 chg bounds, 155 chg sides, 0 chg coeffs, 0 upgd conss, 0 impls, 5985 clqs
(round 4, fast)       1723 del vars, 7 del conss, 0 add conss, 849 chg bounds, 155 chg sides, 0 chg coeffs, 0 upgd conss, 0 impls, 5985 clqs
(round 5, exhaustive) 1723 del vars, 41 del conss, 0 add conss, 849 chg bounds, 155 chg sides, 0 chg coeffs, 0 upgd conss, 0 impls, 5985 clqs
(round 6, exhaustive) 1723 del vars, 41 del conss, 0 add conss, 849 chg bounds, 155 chg sides, 0 chg coeffs, 6194 upgd conss, 0 impls, 5985 clqs
(round 7, exhaustive) 1723 del vars, 70 del conss, 0 add conss, 849 chg bounds, 184 chg sides, 0 chg coeffs, 6194 upgd conss, 0 impls, 5985 clqs
(round 8, fast)       1753 del vars, 71 del conss, 0 add conss, 849 chg bounds, 184 chg sides, 0 chg coeffs, 6194 upgd conss, 0 impls, 5985 clqs
(round 9, exhaustive) 1753 del vars, 77 del conss, 0 add conss, 849 chg bounds, 184 chg sides, 0 chg coeffs, 6194 upgd conss, 0 impls, 5985 clqs
(round 10, exhaustive) 1788 del vars, 77 del conss, 0 add conss, 849 chg bounds, 184 chg sides, 0 chg coeffs, 6194 upgd conss, 0 impls, 5985 clqs
   (0.8s) probing: 1000/6478 (15.4%) - 0 fixings, 0 aggregations, 16478 implications, 0 bound changes
   (0.8s) probing: 1001/6478 (15.5%) - 0 fixings, 0 aggregations, 16499 implications, 0 bound changes
   (0.8s) probing aborted: 1000/1000 successive useless probings
presolving (11 rounds: 11 fast, 6 medium, 6 exhaustive):
 1788 deleted vars, 78 deleted constraints, 0 added constraints, 849 tightened bounds, 0 added holes, 184 changed sides, 0 changed coefficients
 0 implications, 22484 cliques
presolved problem has 7095 variables (6478 bin, 0 int, 459 impl, 158 cont) and 6884 constraints
    209 constraints of type <knapsack>
   5979 constraints of type <setppc>
    696 constraints of type <linear>
Presolving Time: 0.75

 time | node  | left  |LP iter|LP it/n| mem |mdpt |frac |vars |cons |cols |rows |cuts |confs|strbr|  dualbound   | primalbound  |  gap   
t 0.8s|     1 |     0 |     0 |     - |  52M|   0 |   - |7095 |6884 |   0 |   0 |   0 |   0 |   0 |-4.331430e+05 | 5.200200e+04 |    Inf 
Q 0.8s|     1 |     0 |     0 |     - |  61M|   0 |   - |7095 |6884 |7095 |6884 |   0 |   0 |   0 |-4.331430e+05 | 1.115000e+04 |    Inf 
V 0.9s|     1 |     0 |   112 |     - |  64M|   0 |   - |7095 |6884 |7095 |6884 |   0 |   0 |   0 |-4.331430e+05 | 1.040800e+04 |    Inf 
  8.9s|     1 |     0 | 22861 |     - |  67M|   0 |1629 |7095 |6899 |7095 |6884 |   0 |  15 |   0 | 2.186000e+03 | 1.040800e+04 | 376.12%
 12.8s|     1 |     0 | 30533 |     - |  71M|   0 |1511 |7095 |6899 |7095 |6897 |  13 |  15 |   0 | 2.186000e+03 | 1.040800e+04 | 376.12%
 15.9s|     1 |     0 | 36996 |     - |  72M|   0 |1554 |7095 |6900 |7095 |6911 |  27 |  16 |   0 | 2.186000e+03 | 1.040800e+04 | 376.12%
 18.8s|     1 |     0 | 43106 |     - |  73M|   0 |1343 |7095 |6901 |7095 |6925 |  41 |  17 |   0 | 2.186000e+03 | 1.040800e+04 | 376.12%
 21.3s|     1 |     0 | 48288 |     - |  74M|   0 |1323 |7095 |6901 |7095 |6947 |  63 |  17 |   0 | 2.186500e+03 | 1.040800e+04 | 376.01%
 24.1s|     1 |     0 | 54324 |     - |  76M|   0 |1386 |7095 |6902 |7095 |6964 |  80 |  18 |   0 | 2.186500e+03 | 1.040800e+04 | 376.01%
 26.9s|     1 |     0 | 60341 |     - |  76M|   0 |1272 |7095 |6903 |7095 |6985 | 101 |  19 |   0 | 2.186500e+03 | 1.040800e+04 | 376.01%
 29.1s|     1 |     0 | 64803 |     - |  77M|   0 |1211 |7095 |6904 |7095 |6997 | 113 |  20 |   0 | 2.186500e+03 | 1.040800e+04 | 376.01%
 31.6s|     1 |     0 | 70199 |     - |  78M|   0 |1379 |7095 |6904 |7095 |7011 | 127 |  20 |   0 | 2.186500e+03 | 1.040800e+04 | 376.01%
 34.2s|     1 |     0 | 75711 |     - |  79M|   0 |1082 |7095 |6905 |7095 |7022 | 138 |  21 |   0 | 2.186500e+03 | 1.040800e+04 | 376.01%
 36.2s|     1 |     0 | 80010 |     - |  80M|   0 |1086 |7095 |6906 |7095 |7028 | 144 |  22 |   0 | 2.186500e+03 | 1.040800e+04 | 376.01%
 38.6s|     1 |     0 | 85223 |     - |  81M|   0 |1253 |7095 |6907 |7095 |7041 | 157 |  23 |   0 | 2.186500e+03 | 1.040800e+04 | 376.01%
 time | node  | left  |LP iter|LP it/n| mem |mdpt |frac |vars |cons |cols |rows |cuts |confs|strbr|  dualbound   | primalbound  |  gap   
F 100s|     1 |     0 |249656 |     - |  82M|   0 |   0 |7095 |6908 |7095 |7041 | 157 |  24 |   0 | 2.186500e+03 | 6.217000e+03 | 184.34%
E 110s|     1 |     0 |249656 |     - |  82M|   0 |1253 |7095 |6908 |7095 |7041 | 157 |  24 |   0 | 2.186500e+03 | 3.330000e+03 |  52.30%
  113s|     1 |     0 |249656 |     - |  82M|   0 |1253 |7095 |6908 |7095 |7041 | 157 |  24 |   0 | 2.186500e+03 | 3.330000e+03 |  52.30%
  116s|     1 |     0 |255847 |     - |  83M|   0 |1267 |7095 |6909 |7095 |7062 | 178 |  25 |   0 | 2.186500e+03 | 3.330000e+03 |  52.30%
SCIP nodes: 1 Estimation: -1
  125s|     1 |     2 |255847 |     - |  83M|   0 |1267 |7095 |6910 |7095 |7062 | 178 |  26 |  22 | 2.186500e+03 | 3.330000e+03 |  52.30%
   (125.7s) symmetry computation started: requiring (bin +, int -, cont -), (fixed: bin -, int +, cont -)
   (125.7s) symmetry computation finished: 22 generators found (max: 1500, log10 of symmetry group size: 6.8)
   (125.7s) turning off presolver <domcol> for remaining computations in order to avoid conflicts
SCIP nodes: 2 Estimation: -1
SCIP nodes: 4 Estimation: -1
SCIP nodes: 8 Estimation: -1
SCIP nodes: 16 Estimation: -1
SCIP nodes: 32 Estimation: -1
L 255s|    61 |    62 |377253 |4766.6 | 119M|  60 | 745 |7095 |6910 |7095 |6968 | 250 |  26 | 232 | 2.186500e+03 | 3.149000e+03 |  44.02%
b 255s|    62 |    61 |377253 |4688.5 | 119M|  61 |   - |7095 |6910 |7095 |6968 | 250 |  26 | 232 | 2.186500e+03 | 2.950000e+03 |  34.92%
SCIP nodes: 64 Estimation: -1
SCIP nodes: 128 Estimation: -1
SCIP nodes: 256 Estimation: -1
N 690s|   307 |   308 |994254 |2951.0 | 169M|  71 | 197 |7095 |7089 |7095 |6945 | 513 | 205 | 462 | 2.186500e+03 | 2.430000e+03 |  11.14%
SCIP nodes: 512 Estimation: -1
SCIP nodes: 1024 Estimation: 1.03532e+08
p2661s|  1683 |  1682 |  4877k|2845.7 | 238M|  75 |   - |7095 |8165 |7095 |6989 |   0 |2199 |1754 | 2.186500e+03 | 2.306000e+03 |   5.47%
p2690s|  1710 |  1709 |  4965k|2852.1 | 238M|  77 |   - |7095 |8178 |7095 |6990 |   0 |2226 |1764 | 2.186500e+03 | 2.289000e+03 |   4.69%
SCIP nodes: 2048 Estimation: 2.17218e+13
p3820s|  2575 |  2574 |  7273k|2790.3 | 257M|  84 |   - |7095 |8467 |7095 |6985 |   0 |3361 |2498 | 2.186500e+03 | 2.284000e+03 |   4.46%
p3988s|  2712 |  2692 |  7608k|2772.7 | 257M|  84 |   - |7095 |8561 |7095 |6986 |   0 |3521 |2617 | 2.186500e+03 | 2.247000e+03 |   2.77%
p4861s|  3494 |  3474 |  9385k|2660.9 | 267M|  88 |   - |7095 |9094 |7095 |6982 |   0 |4681 |3253 | 2.186500e+03 | 2.204000e+03 |   0.80%
SCIP nodes: 4096 Estimation: 2.32435e+12

SCIP Status        : solving was interrupted [time limit reached]
Solving Time (sec) : 7200.00
Solving Nodes      : 5816
Primal Bound       : +2.20400000000001e+03 (659 solutions)
Dual Bound         : +2.18700000000000e+03
Gap                : 0.78 %

SCIP> display statistics

SCIP Status        : solving was interrupted [time limit reached]
Total Time         :    7200.01
  solving          :    7200.00
  presolving       :       0.75 (included in solving)
  reading          :       0.01
  copying          :       0.97 (38 #copies) (minimal 0.01, maximal 0.04, average 0.03)
Original Problem   :
  Problem name     : file
  Variables        : 8883 (6478 binary, 0 integer, 0 implicit integer, 2405 continuous)
  Constraints      : 6962 initial, 6962 maximal
  Objective        : minimize, 8883 non-zeros (abs.min = 1, abs.max = 500)
Presolved Problem  :
  Problem name     : t_file
  Variables        : 7095 (6478 binary, 0 integer, 459 implicit integer, 158 continuous)
  Constraints      : 6884 initial, 9646 maximal
  Objective        : minimize, 7095 non-zeros (abs.min = 1, abs.max = 490)
Presolvers         :   ExecTime  SetupTime  Calls  FixedVars   AggrVars   ChgTypes  ChgBounds   AddHoles    DelCons    AddCons   ChgSides   ChgCoefs
  boundshift       :       0.00       0.00      0          0          0          0          0          0          0          0          0          0
  convertinttobin  :       0.00       0.00      0          0          0          0          0          0          0          0          0          0
  domcol           :       0.01       0.00      2         35          0          0          0          0          0          0          0          0
  dualagg          :       0.00       0.00      0          0          0          0          0          0          0          0          0          0
  dualcomp         :       0.00       0.00      2          0          0          0          0          0          0          0          0          0
  dualinfer        :       0.00       0.00      0          0          0          0          0          0          0          0          0          0
  gateextraction   :       0.00       0.00      0          0          0          0          0          0          0          0          0          0
  implics          :       0.00       0.00      6          0          0          0          0          0          0          0          0          0
  inttobinary      :       0.00       0.00      0          0          0          0          0          0          0          0          0          0
  qpkktref         :       0.00       0.00      0          0          0          0          0          0          0          0          0          0
  redvub           :       0.00       0.00      0          0          0          0          0          0          0          0          0          0
  sparsify         :       0.00       0.00      1          0          0          0          0          0          0          0          0          0
  stuffing         :       0.00       0.00      0          0          0          0          0          0          0          0          0          0
  symbreak         :       0.00       0.00      0          0          0          0          0          0          0          0          0          0
  symmetry         :       0.00       0.00      0          0          0          0          0          0          0          0          0          0
  trivial          :       0.01       0.00     11          0          0          0          0          0          0          0          0          0
  tworowbnd        :       0.00       0.00      0          0          0          0          0          0          0          0          0          0
  dualfix          :       0.00       0.00     11       1578          0          0          0          0          0          0          0          0
  genvbounds       :       0.00       0.00      0          0          0          0          0          0          0          0          0          0
  orbitalfixing    :       0.00       0.00      0          0          0          0          0          0          0          0          0          0
  probing          :       0.63       0.00      1          0          0          0          0          0          0          0          0          0
  pseudoobj        :       0.00       0.00      0          0          0          0          0          0          0          0          0          0
  vbounds          :       0.00       0.00      1          0          0          0          0          0          0          0          0          0
  knapsack         :       0.01       0.00     13          0          0          0          0          0          0          0          0          0
  setppc           :       0.04       0.00     13          0          0          0          0          0          6          0          0          0
  linear           :       0.05       0.01     16         12        163          0        849          0         72          0        184          0
  logicor          :       0.00       0.00      0          0          0          0          0          0          0          0          0          0
  bounddisjunction :       0.00       0.00      0          0          0          0          0          0          0          0          0          0
  benders          :       0.00       0.00      0          0          0          0          0          0          0          0          0          0
  components       :       0.00       0.00      1          0          0          0          0          0          0          0          0          0
  root node        :          -          -      -          0          -          -          0          -          -          -          -          -
Constraints        :     Number  MaxNumber  #Separate #Propagate    #EnfoLP    #EnfoRelax  #EnfoPS    #Check   #ResProp    Cutoffs    DomReds       Cuts    Applied      Conss   Children
  benderslp        :          0          0          0          0       5923          0          0       1341          0          0          0          0          0          0          0
  integral         :          0          0          0          0       5923          0          0       1341          0          0        125          0          0         28      11620
  knapsack         :        209        209         12     424247          0          0          0       1026      56659        199      21096          0          0          0          0
  setppc           :       5979+      6372         12     423991          0          0          0        659     556382         97     182752          2          1          0          0
  linear           :        696+       699         12     423893          0          0          0        659        608          5          8          0          0          0          0
  logicor          :          0+      2160         12      15469          0          0          0          0        196        192         81          0          0          0          0
  bounddisjunction :          0+       293          0       3209          0          0          0          0          3         19          0          0          0          0          0
  benders          :          0          0          0          0          0          0          0        660          0          0          0          0          0          0          0
  countsols        :          0          0          0          0          0          0          0        660          0          0          0          0          0          0          0
  components       :          0          0          0          0          0          0          0          0          0          0          0          0          0          0          0
Constraint Timings :  TotalTime  SetupTime   Separate  Propagate     EnfoLP     EnfoPS     EnfoRelax   Check    ResProp    SB-Prop
  benderslp        :       0.02       0.00       0.00       0.00       0.02       0.00       0.00       0.00       0.00       0.00
  integral         :    1713.22       0.00       0.00       0.00    1713.08       0.00       0.00       0.14       0.00       0.00
  knapsack         :       0.54       0.00       0.01       0.42       0.00       0.00       0.00       0.00       0.06       0.05
  setppc           :       2.62       0.00       0.00       1.81       0.00       0.00       0.00       0.10       0.44       0.27
  linear           :       0.44       0.01       0.00       0.37       0.00       0.00       0.00       0.02       0.00       0.04
  logicor          :       0.25       0.00       0.00       0.21       0.00       0.00       0.00       0.00       0.01       0.03
  bounddisjunction :       0.02       0.00       0.00       0.01       0.00       0.00       0.00       0.00       0.00       0.01
  benders          :       0.00       0.00       0.00       0.00       0.00       0.00       0.00       0.00       0.00       0.00
  countsols        :       0.00       0.00       0.00       0.00       0.00       0.00       0.00       0.00       0.00       0.00
  components       :       0.15       0.00       0.00       0.15       0.00       0.00       0.00       0.00       0.00       0.00
Propagators        : #Propagate   #ResProp    Cutoffs    DomReds
  dualfix          :          3          0          0          0
  genvbounds       :          0          0          0          0
  nlobbt           :          0          0          0          0
  obbt             :          0          0          0          0
  orbitalfixing    :       6157          0          0        334
  probing          :          0          0          0          0
  pseudoobj        :      22228          0          0          0
  redcost          :      12718          0          0        188
  rootredcost      :          9          0          0          0
  vbounds          :     427193          0          0          0
Propagator Timings :  TotalTime  SetupTime   Presolve  Propagate    ResProp    SB-Prop
  dualfix          :       0.01       0.00       0.00       0.01       0.00       0.00
  genvbounds       :       0.14       0.00       0.00       0.14       0.00       0.00
  nlobbt           :       0.00       0.00       0.00       0.00       0.00       0.00
  obbt             :       0.00       0.00       0.00       0.00       0.00       0.00
  orbitalfixing    :       2.30       0.00       0.00       2.29       0.00       0.01
  probing          :       0.63       0.00       0.63       0.00       0.00       0.00
  pseudoobj        :       0.33       0.00       0.00       0.32       0.00       0.01
  redcost          :       7.98       0.00       0.00       7.95       0.00       0.03
  rootredcost      :       0.25       0.00       0.00       0.25       0.00       0.00
  vbounds          :       0.37       0.00       0.00       0.34       0.00       0.03
Orbital fixing     :
  vars fixed to 0  :        334
  vars fixed to 1  :          0
Conflict Analysis  :       Time      Calls    Success    DomReds  Conflicts   Literals    Reconvs ReconvLits   Dualrays   Nonzeros   LP Iters   (pool size: [10000,10000])
  propagation      :       0.02        502        406          -        534       65.2         90        2.6          -          -          -
  infeasible LP    :       0.00          0          0          -          0        0.0          0        0.0          0        0.0          0
  bound exceed. LP :      11.79        738        707          -      57746      764.1        332        2.6          8     1027.5      13110
  strong branching :       0.00          0          0          -          0        0.0          0        0.0          -          -          0
  pseudo solution  :       0.00          0          0          -          0        0.0          0        0.0          -          -          -
  applied globally :       0.19          -          -          0       7485      213.8          -          -          8          -          -
  applied locally  :          -          -          -          0          0        0.0          -          -          0          -          -
Separators         :   ExecTime  SetupTime      Calls    Cutoffs    DomReds       Cuts    Applied      Conss
  cut pool         :       0.18                  1512          -          -       5779          -          -    (maximal pool size: 878)
  aggregation      :       0.59       0.00        316          0          0          0          0          0
  cgmip            :       0.00       0.00          0          0          0          0          0          0
  clique           :       1.34       0.00         12          0          0          0         21          0
  closecuts        :       0.00       0.00          0          0          0          0          0          0
  cmir             :       0.00       0.00          0          0          0          0          0          0
  convexproj       :       0.00       0.00          0          0          0          0          0          0
  disjunctive      :       0.00       0.00          0          0          0          0          0          0
  eccuts           :       0.00       0.00          0          0          0          0          0          0
  flowcover        :       0.00       0.00          0          0          0          0          0          0
  gauge            :       0.00       0.00          0          0          0          0          0          0
  gomory           :      20.43       0.00        314          0          0          9        631          0
  impliedbounds    :       0.16       0.00        316          0          0          0         67          0
  intobj           :       0.00       0.00          0          0          0          0          0          0
  mcf              :       0.01       0.00          1          0          0          0          0          0
  oddcycle         :       0.00       0.00          0          0          0          0          0          0
  rapidlearning    :       0.00       0.00          0          0          0          0          0          0
  strongcg         :       3.12       0.00         48          0          0          6          9          0
  zerohalf         :       5.06       0.00        316          0          0        129       3719          0
Pricers            :   ExecTime  SetupTime      Calls       Vars
  problem variables:       0.00          -          0          0
Branching Rules    :   ExecTime  SetupTime   BranchLP  BranchExt   BranchPS    Cutoffs    DomReds       Cuts      Conss   Children
  allfullstrong    :       0.00       0.00          0          0          0          0          0          0          0          0
  cloud            :       0.00       0.00          0          0          0          0          0          0          0          0
  distribution     :       0.00       0.00          0          0          0          0          0          0          0          0
  fullstrong       :       0.00       0.00          0          0          0          0          0          0          0          0
  inference        :       0.00       0.00          0          0          0          0          0          0          0          0
  leastinf         :       0.00       0.00          0          0          0          0          0          0          0          0
  lookahead        :       0.00       0.00          0          0          0          0          0          0          0          0
  mostinf          :       0.00       0.00          0          0          0          0          0          0          0          0
  multaggr         :       0.00       0.00          0          0          0          0          0          0          0          0
  nodereopt        :       0.00       0.00          0          0          0          0          0          0          0          0
  pscost           :       0.00       0.00          0          0          0          0          0          0          0          0
  random           :       0.00       0.00          0          0          0          0          0          0          0          0
  relpscost        :    1713.07       0.00       5923          0          0          0        125          0         34      11620
Primal Heuristics  :   ExecTime  SetupTime      Calls      Found       Best
  LP solutions     :       0.00          -          -          0          0
  relax solutions  :       0.00          -          -          0          0
  pseudo solutions :       0.00          -          -          0          0
  strong branching :       0.15          -          -          0          0
  actconsdiving    :       0.00       0.00          0          0          0
  alns             :       4.06       0.00          5          1          1
  bound            :       0.00       0.00          0          0          0
  clique           :       0.05       0.00          1          1          1
  coefdiving       :      70.32       0.00         79          0          0
  completesol      :       0.00       0.00          0          0          0
  conflictdiving   :       0.00       0.00          0          0          0
  crossover        :       1.42       0.00         12          7          0
  dins             :       0.00       0.00          0          0          0
  distributiondivin:     165.52       0.00         61          0          0
  dualval          :       0.00       0.00          0          0          0
  farkasdiving     :      57.81       0.00          1          0          0
  feaspump         :       3.94       0.00          1          1          1
  fixandinfer      :       0.00       0.00          0          0          0
  fracdiving       :      80.17       0.00         79          0          0
  gins             :       0.79       0.00         12          8          0
  guideddiving     :      87.09       0.00         79          0          0
  indicator        :       0.01       0.00          0          0          0
  intdiving        :       0.00       0.00          0          0          0
  intshifting      :       0.27       0.00         33          0          0
  linesearchdiving :     134.09       0.00         79          0          0
  localbranching   :       0.00       0.00          0          0          0
  locks            :       0.09       0.00          1          0          0
  lpface           :     212.18       0.00          2          0          0
  mpec             :       0.00       0.00          0          0          0
  multistart       :       0.00       0.00          0          0          0
  mutation         :       0.00       0.00          0          0          0
  nlpdiving        :       0.00       0.00          0          0          0
  objpscostdiving  :     103.68       0.00          7          0          0
  octane           :       0.00       0.00          0          0          0
  ofins            :       0.00       0.00          0          0          0
  oneopt           :       0.04       0.00          9          1          1
  proximity        :       0.00       0.00          0          0          0
  pscostdiving     :     431.05       0.00         79          5          5
  randrounding     :       0.27       0.00        687          0          0
  rens             :       9.43       0.00          1          1          1
  reoptsols        :       0.00       0.00          0          0          0
  repair           :       0.00       0.00          0          0          0
  rins             :      21.33       0.00          8          7          1
  rootsoldiving    :     195.64       0.00         40         27          0
  rounding         :       8.59       0.00       1122          0          0
  shiftandpropagate:       0.00       0.00          0          0          0
  shifting         :       4.30       0.00        492          0          0
  simplerounding   :       0.19       0.00       6744          0          0
  subnlp           :       0.02       0.00          0          0          0
  trivial          :       0.00       0.00          2          2          1
  trivialnegation  :       0.00       0.00          0          0          0
  trysol           :       0.00       0.00          0          0          0
  twoopt           :       0.00       0.00          0          0          0
  undercover       :       0.00       0.00          0          0          0
  vbounds          :       0.24       0.00          1          1          1
  veclendiving     :     144.17       0.00         79          0          0
  zeroobj          :       0.00       0.00          0          0          0
  zirounding       :       3.33       0.00       5810        597          0
  other solutions  :          -          -          -          0          -
Diving Statistics  :      Calls      Nodes   LP Iters Backtracks  Conflicts   MinDepth   MaxDepth   AvgDepth  RoundSols  NLeafSols  MinSolDpt  MaxSolDpt  AvgSolDpt
  actconsdiving    :          0          -          -          -          -          -          -          -          -          -          -          -          -
  coefdiving       :         79      54118     199339         38       3262         64       1414      748.2          0          -          -          -          -
  conflictdiving   :          0          -          -          -          -          -          -          -          -          -          -          -          -
  distributiondivin:         61       9405     530806         80       3801         60        785      216.8          0          -          -          -          -
  farkasdiving     :          1         84     153230          0          0         85         85       85.0          0          -          -          -          -
  fracdiving       :         79      47677     246982         56       4567         90       1401      668.5          0          -          -          -          -
  guideddiving     :         79      44537     255296         55       4426         60       1405      625.6          0          -          -          -          -
  linesearchdiving :         79      11903     424555        224      19896         66       1322      211.3          0          -          -          -          -
  pscostdiving     :         79      41075    1434841         55      11591        151       1024      584.8          0          5        501        760      670.8
  veclendiving     :         79      31588     482964        137      11086         52       1503      461.1          0          -          -          -          -
Neighborhoods      :      Calls  SetupTime  SolveTime SolveNodes       Sols       Best       Exp3  EpsGreedy        UCB TgtFixRate  Opt  Inf Node Stal  Sol  Usr Othr Actv
  rens             :          1       0.05       0.32         43          0          0    0.00000   -1.00000    1.00000      0.700    0    1    0    0    0    0    0    1
  rins             :          1       0.03       3.39         55          0          0    0.00000   -1.00000    1.00000      0.900    0    0    0    1    0    0    0    1
  mutation         :          0       0.00       0.00          0          0          0    0.00000   -1.00000    1.00000      0.900    0    0    0    0    0    0    0    1
  localbranching   :          0       0.00       0.00          0          0          0    0.00000   -1.00000    1.00000      0.900    0    0    0    0    0    0    0    1
  crossover        :          1       0.03       0.06         17          1          1    0.00000   -1.00000    1.00000      0.700    1    0    0    0    0    0    0    1
  proximity        :          1       0.03       0.04          1          0          0    0.00000   -1.00000    1.00000      0.700    0    1    0    0    0    0    0    1
  zeroobjective    :          1       0.02       0.07          3          0          0    0.00000   -1.00000    1.00000      0.700    0    1    0    0    0    0    0    1
  dins             :          0       0.00       0.00          0          0          0    0.00000   -1.00000    1.00000      0.900    0    0    0    0    0    0    0    1
LP                 :       Time      Calls Iterations  Iter/call   Iter/sec  Time-0-It Calls-0-It    ItLimit
  primal LP        :     328.14        551          0       0.00       0.00     328.14        551
  dual LP          :    3367.75       6795    9138767    1355.10    2713.61       0.11         51
  lex dual LP      :       0.00          0          0       0.00          -
  barrier LP       :       0.00          0          0       0.00          -       0.00          0
  resolve instable :       0.00          0          0       0.00          -
  diving/probing LP:    1430.54       3781    4547155    1202.63    3178.63
  strong branching :    1704.27       5286    4668588     883.20    2739.35          -          -       7834
    (at root node) :          -         22      21472     976.00          -
  conflict analysis:       5.03       1313      13110       9.98    2606.36
B&B Tree           :
  number of runs   :          1
  nodes            :       5816 (5810 internal, 6 leaves)
  feasible leaves  :          0
  infeas. leaves   :          5
  objective leaves :          0
  nodes (total)    :       5816 (5810 internal, 6 leaves)
  nodes left       :       5791
  max depth        :        103
  max depth (total):        103
  backtracks       :        583 (10.0%)
  early backtracks :        579 (99.3%)
  nodes exc. ref.  :          9 (0.2%)
  delayed cutoffs  :          0
  repropagations   :        342 (34 domain reductions, 0 cutoffs)
  avg switch length:       4.06
  switching time   :     329.29
Root Node          :
  First LP value   : +2.18600000000000e+03
  First LP Iters   :      22703 (2925.64 Iter/sec)
  First LP Time    :       7.76
  Final Dual Bound : +2.18650000000004e+03
  Final Root Iters :      91256
  Root LP Estimate : +2.29848400896772e+03
Solution           :
  Solutions found  :        659 (13 improvements)
  First Solution   : +5.20020000000000e+04   (in run 1, after 1 nodes, 0.79 seconds, depth 0, found by <trivial>)
  Gap First Sol.   :   infinite
  Gap Last Sol.    :       0.80 %
  Primal Bound     : +2.20400000000001e+03   (in run 1, after 3494 nodes, 4860.91 seconds, depth 501, found by <pscostdiving>)
  Dual Bound       : +2.18700000000000e+03
  Gap              :       0.78 %
  Avg. Gap         :       7.61 % (54807.24 primal-dual integral)
  Tree Data        : 11621 nodes (5830 visited, 5810 inner, 20 leaves, 5791 open), progress: 0.0000
Tree Estimation    :       estim       value       trend  resolution      smooth
  wbe              :   167772159           -           -           -           -
  tree profile     : 5163234767205359           -           -           -           -
  gap              :          39     0.99229     0.03401           1          39
  progress         :       11660     0.00000     0.00000           1        9299
  leaf-frequency   :       11660     0.00402    -0.00017           1        9551
  ssg              :         737     0.99663    -0.00286           1         701
  open-nodes       :       11660  4806.00000   229.30579           1        9299


SCIP> checksol

check best solution
solution is feasible in original problem
Violation          :    absolute    relative
  bounds           : 1.28786e-14 1.28786e-14
  integrality      : 1.28786e-14           -
  LP rows          : 1.28786e-14 1.28786e-14
  constraints      : 1.28786e-14 1.28786e-14

SCIP> write sol /local/tmp/bzfhende-tmpdir/bzfhende.MMMc.415_neos-984165.scip.M6440.enable_treeprofile.sol

written solution information to file </local/tmp/bzfhende-tmpdir/bzfhende.MMMc.415_neos-984165.scip.M640.enable_treeprofile.sol>

SCIP> quit

Disabling tree profile data collection
Read MPS: 1
MIP has 8883 vars and 6962 constraints
Read SOL: 1
Objective value computed by solver: 2204.00000000001

Integrality tolerance: 1/10000
Linear tolerance: 1/10000
Objective tolerance: 1/10000

Check SOL: Integrality 1 Constraints 1 Objective 1
Maximum violations: Integrality 1e-14 Constraints 1e-14 Objective 9.799999999999999e-12
@04 1566529548
-----------------------------
Fr 23. Aug 05:05:48 CEST 2019
-----------------------------

=ready=
